certificates/rado_a14_c68_N28.cnf
c Rad2 upper bound instance: x1 + 14*x2 - x3 = 68, interval [1,28]
p cnf 28 112
1 3 5 0
-1 -3 -5 0
1 6 17 0
-1 -6 -17 0
2 4 5 0
-2 -4 -5 0
2 6 18 0
-2 -6 -18 0
3 5 0
-3 -5 0
3 6 19 0
-3 -6 -19 0
4 5 6 0
-4 -5 -6 0
4 6 20 0
-4 -6 -20 0
5 7 0
-5 -7 0
5 6 21 0
-5 -6 -21 0
5 6 8 0
-5 -6 -8 0
6 22 0
-6 -22 0
5 7 9 0
-5 -7 -9 0
6 7 23 0
-6 -7 -23 0
5 8 10 0
-5 -8 -10 0
6 8 24 0
-6 -8 -24 0
5 9 11 0
-5 -9 -11 0
6 9 25 0
-6 -9 -25 0
5 10 12 0
-5 -10 -12 0
6 10 26 0
-6 -10 -26 0
5 11 13 0
-5 -11 -13 0
6 11 27 0
-6 -11 -27 0
5 12 14 0
-5 -12 -14 0
6 12 28 0
-6 -12 -28 0
1 4 13 0
-1 -4 -13 0
5 13 15 0
-5 -13 -15 0
2 4 14 0
-2 -4 -14 0
5 14 16 0
-5 -14 -16 0
3 4 15 0
-3 -4 -15 0
5 15 17 0
-5 -15 -17 0
4 16 0
-4 -16 0
5 16 18 0
-5 -16 -18 0
4 5 17 0
-4 -5 -17 0
5 17 19 0
-5 -17 -19 0
4 6 18 0
-4 -6 -18 0
5 18 20 0
-5 -18 -20 0
4 7 19 0
-4 -7 -19 0
5 19 21 0
-5 -19 -21 0
4 8 20 0
-4 -8 -20 0
5 20 22 0
-5 -20 -22 0
4 9 21 0
-4 -9 -21 0
5 21 23 0
-5 -21 -23 0
4 10 22 0
-4 -10 -22 0
5 22 24 0
-5 -22 -24 0
4 11 23 0
-4 -11 -23 0
5 23 25 0
-5 -23 -25 0
4 12 24 0
-4 -12 -24 0
5 24 26 0
-5 -24 -26 0
4 13 25 0
-4 -13 -25 0
5 25 27 0
-5 -25 -27 0
4 14 26 0
-4 -14 -26 0
5 26 28 0
-5 -26 -28 0
1 3 27 0
-1 -3 -27 0
4 15 27 0
-4 -15 -27 0
2 3 28 0
-2 -3 -28 0
4 16 28 0
-4 -16 -28 0
