certificates/rado_a14_c68_N28.drat
-26 -28 0
d -5 -26 -28 0
6 -4 26 0
-4 26 0
d 6 -4 26 0
-28 0
26 0
-5 0
3 0
7 0
4 0
-16 0
-14 0
-15 0
-19 0
18 0
0
